NAME : eil5
COMMENT : (Eilon et al.)
TYPE : CVRP
DIMENSION : 5
EDGE_WEIGHT_TYPE : EUC_2D
CAPACITY : 6000
NODE_COORD_SECTION
1 145 215
2 151 264
3 159 261
4 130 254
5 128 252
DEMAND_SECTION
1 0
2 1100
3 700
4 800
5 1400
DEPOT_SECTION
 1
 -1
EOF
